N = 111;
M = 452;
Edge_Start = [1, 1, 2, 2, 3, 4, 4, 5, 6, 6, 6, 7, 7, 7, 8, 9, 9, 10, 11, 11, 12, 13, 14, 14, 15, 15, 15, 15, 16, 16, 16, 17, 17, 17, 18, 18, 19, 19, 19, 20, 20, 21, 21, 22, 22, 22, 23, 23, 23, 24, 24, 24, 25, 25, 26, 26, 26, 27, 27, 27, 28, 28, 29, 30, 30, 30, 31, 31, 32, 32, 33, 33, 33, 34, 34, 35, 35, 36, 36, 37, 38, 38, 39, 39, 39, 40, 40, 41, 41, 42, 42, 42, 43, 43, 44, 45, 46, 46, 47, 47, 48, 48, 48, 49, 49, 49, 50, 51, 51, 51, 52, 52, 53, 53, 54, 54, 54, 55, 56, 57, 57, 58, 59, 60, 61, 62, 62, 63, 63, 63, 64, 65, 65, 66, 67, 67, 68, 68, 69, 69, 70, 70, 70, 71, 71, 71, 72, 72, 73, 73, 73, 74, 74, 75, 75, 75, 75, 76, 77, 78, 78, 79, 80, 80, 81, 81, 82, 82, 82, 83, 83, 83, 84, 84, 84, 85, 85, 85, 86, 86, 86, 87, 87, 88, 89, 90, 91, 91, 91, 92, 92, 93, 93, 94, 94, 95, 96, 96, 97, 97, 98, 99, 99, 100, 100, 101, 101, 102, 102, 103, 103, 103, 104, 105, 106, 107, 108, 108, 108, 109, 110, 110, 110, 111, 111, 111, 27, 48, 35, 47, 57, 73, 103, 97, 15, 48, 53, 82, 85, 111, 99, 14, 90, 11, 10, 64, 3, 67, 88, 91, 6, 19, 49, 51, 24, 30, 33, 54, 63, 82, 51, 75, 15, 63, 75, 22, 28, 22, 26, 20, 21, 23, 22, 26, 33, 16, 32, 75, 32, 86, 21, 23, 86, 1, 54, 108, 20, 36, 43, 16, 71, 83, 76, 80, 24, 25, 16, 23, 86, 35, 47, 34, 38, 28, 37, 36, 40, 43, 69, 84, 110, 34, 38, 79, 94, 47, 94, 96, 13, 68, 60, 60, 101, 105, 2, 42, 1, 6, 49, 15, 48, 63, 2, 15, 18, 53, 13, 68, 6, 51, 17, 27, 85, 50, 31, 50, 55, 92, 56, 61, 62, 44, 95, 17, 19, 49, 59, 78, 92, 75, 5, 93, 40, 43, 39, 108, 71, 83, 111, 30, 70, 82, 73, 103, 4, 72, 74, 29, 73, 18, 19, 24, 66, 93, 78, 65, 77, 41, 59, 98, 45, 84, 7, 17, 71, 30, 70, 110, 39, 81, 101, 7, 54, 111, 25, 26, 33, 99, 100, 106, 9, 12, 14, 74, 90, 65, 96, 52, 58, 41, 42, 89, 42, 52, 80, 98, 10, 8, 87, 87, 102, 46, 84, 100, 103, 4, 72, 102, 109, 46, 104, 8, 27, 69, 110, 107, 39, 83, 108, 7, 70, 85];
Edge_End = [27, 48, 35, 47, 57, 73, 103, 97, 15, 48, 53, 82, 85, 111, 99, 14, 90, 11, 10, 64, 3, 67, 88, 91, 6, 19, 49, 51, 24, 30, 33, 54, 63, 82, 51, 75, 15, 63, 75, 22, 28, 22, 26, 20, 21, 23, 22, 26, 33, 16, 32, 75, 32, 86, 21, 23, 86, 1, 54, 108, 20, 36, 43, 16, 71, 83, 76, 80, 24, 25, 16, 23, 86, 35, 47, 34, 38, 28, 37, 36, 40, 43, 69, 84, 110, 34, 38, 79, 94, 47, 94, 96, 13, 68, 60, 60, 101, 105, 2, 42, 1, 6, 49, 15, 48, 63, 2, 15, 18, 53, 13, 68, 6, 51, 17, 27, 85, 50, 31, 50, 55, 92, 56, 61, 62, 44, 95, 17, 19, 49, 59, 78, 92, 75, 5, 93, 40, 43, 39, 108, 71, 83, 111, 30, 70, 82, 73, 103, 4, 72, 74, 29, 73, 18, 19, 24, 66, 93, 78, 65, 77, 41, 59, 98, 45, 84, 7, 17, 71, 30, 70, 110, 39, 81, 101, 7, 54, 111, 25, 26, 33, 99, 100, 106, 9, 12, 14, 74, 90, 65, 96, 52, 58, 41, 42, 89, 42, 52, 80, 98, 10, 8, 87, 87, 102, 46, 84, 100, 103, 4, 72, 102, 109, 46, 104, 8, 27, 69, 110, 107, 39, 83, 108, 7, 70, 85, 1, 1, 2, 2, 3, 4, 4, 5, 6, 6, 6, 7, 7, 7, 8, 9, 9, 10, 11, 11, 12, 13, 14, 14, 15, 15, 15, 15, 16, 16, 16, 17, 17, 17, 18, 18, 19, 19, 19, 20, 20, 21, 21, 22, 22, 22, 23, 23, 23, 24, 24, 24, 25, 25, 26, 26, 26, 27, 27, 27, 28, 28, 29, 30, 30, 30, 31, 31, 32, 32, 33, 33, 33, 34, 34, 35, 35, 36, 36, 37, 38, 38, 39, 39, 39, 40, 40, 41, 41, 42, 42, 42, 43, 43, 44, 45, 46, 46, 47, 47, 48, 48, 48, 49, 49, 49, 50, 51, 51, 51, 52, 52, 53, 53, 54, 54, 54, 55, 56, 57, 57, 58, 59, 60, 61, 62, 62, 63, 63, 63, 64, 65, 65, 66, 67, 67, 68, 68, 69, 69, 70, 70, 70, 71, 71, 71, 72, 72, 73, 73, 73, 74, 74, 75, 75, 75, 75, 76, 77, 78, 78, 79, 80, 80, 81, 81, 82, 82, 82, 83, 83, 83, 84, 84, 84, 85, 85, 85, 86, 86, 86, 87, 87, 88, 89, 90, 91, 91, 91, 92, 92, 93, 93, 94, 94, 95, 96, 96, 97, 97, 98, 99, 99, 100, 100, 101, 101, 102, 102, 103, 103, 103, 104, 105, 106, 107, 108, 108, 108, 109, 110, 110, 110, 111, 111, 111];
L = [1, 1, 1, 1, 1, 1, 1, 1, 1, 1, 1, 1, 1, 1, 1, 1, 1, 1, 1, 1, 1, 1, 1, 1, 1, 1, 1, 1, 1, 1, 1, 1, 1, 1, 1, 1, 1, 1, 1, 1, 1, 1, 1, 1, 1, 1, 1, 1, 1, 1, 1, 1, 1, 1, 1, 1, 1, 1, 1, 1, 1, 1, 1, 1, 1, 1, 1, 1, 1, 1, 1, 1, 1, 1, 1, 1, 1, 1, 1, 1, 1, 1, 1, 1, 1, 1, 1, 1, 1, 1, 1, 1, 1, 1, 1, 1, 1, 1, 1, 1, 1, 1, 1, 1, 1, 1, 1, 1, 1, 1, 1, 1, 1, 1, 1, 1, 1, 1, 1, 1, 1, 1, 1, 1, 1, 1, 1, 1, 1, 1, 1, 1, 1, 1, 1, 1, 1, 1, 1, 1, 1, 1, 1, 1, 1, 1, 1, 1, 1, 1, 1, 1, 1, 1, 1, 1, 1, 1, 1, 1, 1, 1, 1, 1, 1, 1, 1, 1, 1, 1, 1, 1, 1, 1, 1, 1, 1, 1, 1, 1, 1, 1, 1, 1, 1, 1, 1, 1, 1, 1, 1, 1, 1, 1, 1, 1, 1, 1, 1, 1, 1, 1, 1, 1, 1, 1, 1, 1, 1, 1, 1, 1, 1, 1, 1, 1, 1, 1, 1, 1, 1, 1, 1, 1, 1, 1, 1, 1, 1, 1, 1, 1, 1, 1, 1, 1, 1, 1, 1, 1, 1, 1, 1, 1, 1, 1, 1, 1, 1, 1, 1, 1, 1, 1, 1, 1, 1, 1, 1, 1, 1, 1, 1, 1, 1, 1, 1, 1, 1, 1, 1, 1, 1, 1, 1, 1, 1, 1, 1, 1, 1, 1, 1, 1, 1, 1, 1, 1, 1, 1, 1, 1, 1, 1, 1, 1, 1, 1, 1, 1, 1, 1, 1, 1, 1, 1, 1, 1, 1, 1, 1, 1, 1, 1, 1, 1, 1, 1, 1, 1, 1, 1, 1, 1, 1, 1, 1, 1, 1, 1, 1, 1, 1, 1, 1, 1, 1, 1, 1, 1, 1, 1, 1, 1, 1, 1, 1, 1, 1, 1, 1, 1, 1, 1, 1, 1, 1, 1, 1, 1, 1, 1, 1, 1, 1, 1, 1, 1, 1, 1, 1, 1, 1, 1, 1, 1, 1, 1, 1, 1, 1, 1, 1, 1, 1, 1, 1, 1, 1, 1, 1, 1, 1, 1, 1, 1, 1, 1, 1, 1, 1, 1, 1, 1, 1, 1, 1, 1, 1, 1, 1, 1, 1, 1, 1, 1, 1, 1, 1, 1, 1, 1, 1, 1, 1, 1, 1, 1, 1, 1, 1, 1, 1, 1, 1, 1, 1, 1, 1, 1, 1, 1, 1, 1, 1, 1, 1, 1, 1, 1, 1, 1];
T = [1, 1, 1, 1, 1, 1, 1, 1, 1, 1, 1, 1, 1, 1, 1, 1, 1, 1, 1, 1, 1, 1, 1, 1, 1, 1, 1, 1, 1, 1, 1, 1, 1, 1, 1, 1, 1, 1, 1, 1, 1, 1, 1, 1, 1, 1, 1, 1, 1, 1, 1, 1, 1, 1, 1, 1, 1, 1, 1, 1, 1, 1, 1, 1, 1, 1, 1, 1, 1, 1, 1, 1, 1, 1, 1, 1, 1, 1, 1, 1, 1, 1, 1, 1, 1, 1, 1, 1, 1, 1, 1, 1, 1, 1, 1, 1, 1, 1, 1, 1, 1, 1, 1, 1, 1, 1, 1, 1, 1, 1, 1, 1, 1, 1, 1, 1, 1, 1, 1, 1, 1, 1, 1, 1, 1, 1, 1, 1, 1, 1, 1, 1, 1, 1, 1, 1, 1, 1, 1, 1, 1, 1, 1, 1, 1, 1, 1, 1, 1, 1, 1, 1, 1, 1, 1, 1, 1, 1, 1, 1, 1, 1, 1, 1, 1, 1, 1, 1, 1, 1, 1, 1, 1, 1, 1, 1, 1, 1, 1, 1, 1, 1, 1, 1, 1, 1, 1, 1, 1, 1, 1, 1, 1, 1, 1, 1, 1, 1, 1, 1, 1, 1, 1, 1, 1, 1, 1, 1, 1, 1, 1, 1, 1, 1, 1, 1, 1, 1, 1, 1, 1, 1, 1, 1, 1, 1, 1, 1, 1, 1, 1, 1, 1, 1, 1, 1, 1, 1, 1, 1, 1, 1, 1, 1, 1, 1, 1, 1, 1, 1, 1, 1, 1, 1, 1, 1, 1, 1, 1, 1, 1, 1, 1, 1, 1, 1, 1, 1, 1, 1, 1, 1, 1, 1, 1, 1, 1, 1, 1, 1, 1, 1, 1, 1, 1, 1, 1, 1, 1, 1, 1, 1, 1, 1, 1, 1, 1, 1, 1, 1, 1, 1, 1, 1, 1, 1, 1, 1, 1, 1, 1, 1, 1, 1, 1, 1, 1, 1, 1, 1, 1, 1, 1, 1, 1, 1, 1, 1, 1, 1, 1, 1, 1, 1, 1, 1, 1, 1, 1, 1, 1, 1, 1, 1, 1, 1, 1, 1, 1, 1, 1, 1, 1, 1, 1, 1, 1, 1, 1, 1, 1, 1, 1, 1, 1, 1, 1, 1, 1, 1, 1, 1, 1, 1, 1, 1, 1, 1, 1, 1, 1, 1, 1, 1, 1, 1, 1, 1, 1, 1, 1, 1, 1, 1, 1, 1, 1, 1, 1, 1, 1, 1, 1, 1, 1, 1, 1, 1, 1, 1, 1, 1, 1, 1, 1, 1, 1, 1, 1, 1, 1, 1, 1, 1, 1, 1, 1, 1, 1, 1, 1, 1, 1, 1, 1, 1, 1, 1, 1, 1, 1, 1, 1, 1, 1, 1, 1, 1, 1, 1, 1, 1];
Lower_Bound = [5, 18, 15, 17, 20, 6, 3, 19, 12, 23, 24, 14, 18, 13, 5, 1, 3, 4, 4, 5, 5, 4, 3, 2, 4, 4, 4, 6, 16, 0, 25, 3, 2, 20, 19, 7, 8, 20, 3, 19, 22, 20, 17, 10, 6, 6, 19, 6, 5, 17, 5, 21, 6, 4, 17, 24, 16, 21, 23, 7, 8, 9, 4, 25, 23, 4, 19, 18, 4, 2, 1, 17, 16, 15, 3, 26, 25, 24, 23, 22, 5, 2, 1, 4, 4, 3, 21, 14, 11, 13, 14, 22, 20, 21, 10, 21, 21, 22, 20, 20, 5, 19, 18, 16, 7, 15, 18, 3, 17, 2, 3];
Upper_Bound = [5, 18, 15, 17, 20, 6, 3, 19, 12, 23, 24, 14, 18, 13, 5, 1, 3, 4, 4, 5, 5, 4, 3, 2, 4, 4, 4, 6, 16, 0, 25, 3, 2, 20, 19, 7, 8, 20, 3, 19, 22, 20, 17, 10, 6, 6, 19, 6, 5, 17, 5, 21, 6, 4, 17, 24, 16, 21, 23, 7, 8, 9, 4, 25, 23, 4, 19, 18, 4, 2, 1, 17, 16, 15, 3, 26, 25, 24, 23, 22, 5, 2, 1, 4, 4, 3, 21, 14, 11, 13, 14, 22, 20, 21, 10, 21, 21, 22, 20, 20, 5, 19, 18, 16, 7, 15, 18, 3, 17, 2, 3];
Start = 30;
End = 34;
Time = 20;
